Version identifier: 22.1.1.0 | 2022-11-28 | 9160aff4d
CPXPARAM_ClockType                               1
CPXPARAM_Read_DataCheck                          1
CPXPARAM_Threads                                 1
CPXPARAM_Simplex_Tolerances_Optimality           1.0000000000000001e-09
CPXPARAM_TimeLimit                               7200
CPXPARAM_MIP_Tolerances_AbsMIPGap                0
CPXPARAM_MIP_Tolerances_MIPGap                   0
CPXPARAM_MIP_Tolerances_Integrality              0
Found incumbent of value 0.000000 after 0.00 sec. (1.84 ticks)
Tried aggregator 2 times.
MIQP Presolve eliminated 13294 rows and 40 columns.
MIQP Presolve modified 1208 coefficients.
Aggregator did 9 substitutions.
Reduced MIQP has 8820 rows, 5231 columns, and 39756 nonzeros.
Reduced MIQP has 4969 binaries, 262 generals, 0 SOSs, and 0 indicators.
Reduced MIQP objective Q matrix has 262 nonzeros.
Presolve time = 0.06 sec. (40.42 ticks)
Probing time = 0.00 sec. (3.18 ticks)
Tried aggregator 1 time.
Reduced MIQP has 8820 rows, 5231 columns, and 39756 nonzeros.
Reduced MIQP has 4969 binaries, 262 generals, 0 SOSs, and 0 indicators.
Reduced MIQP objective Q matrix has 262 nonzeros.
Presolve time = 0.02 sec. (18.61 ticks)
Classifier predicts products in MIQP should be linearized.
Probing time = 0.01 sec. (3.11 ticks)
Clique table members: 1560.
MIP emphasis: balance optimality and feasibility.
MIP search method: dynamic search.
Parallel mode: none, using 1 thread.
Root relaxation solution time = 2.99 sec. (4312.40 ticks)

        Nodes                                         Cuts/
   Node  Left     Objective  IInf  Best Integer    Best Bound    ItCnt     Gap

*     0+    0                            0.0000    26200.0000              --- 
      0     0     3822.8993  2767        0.0000     3822.8993       10     --- 
      0     0     3822.8993  4610        0.0000 ZeroHalf: 505   155045     --- 
      0     0     3822.9018  4758        0.0000    Cuts: 2153   162227     --- 

Clique cuts applied:  207
Implied bound cuts applied:  26
Flow cuts applied:  8
Mixed integer rounding cuts applied:  2
Zero-half cuts applied:  1616
Gomory fractional cuts applied:  13

Root node processing (before b&c):
  Real time             = 7204.71 sec. (4102491.33 ticks)
Sequential b&c:
  Real time             =    0.00 sec. (0.00 ticks)
                          ------------
Total (root+branch&cut) = 7204.71 sec. (4102491.33 ticks)
Solution is feasible.

---------------------
@@@ MIP_time_limit_feasible
>>> Benchmark mc2024_track1_006.cnf k 10 OPT 0 TimeCost 7231.00222992897 TimeSolve 7229.15474319458 TimeRead 0.01328277587890625 TimeTrans 1.8342039585113525
